INFO: You are running LIKWID in a cpuset with 50 CPUs. Taking given IDs as logical ID in cpuset
--------------------------------------------------------------------------------
CPU name:	
CPU type:	Fujitsu A64FX
CPU clock:	0.00 GHz
--------------------------------------------------------------------------------
OMP: Warning #181: OMP_PROC_BIND: ignored because KMP_AFFINITY has been defined
LAMMPS (29 Oct 2020)
  using 1 OpenMP thread(s) per MPI task
# bulk water

units           metal
boundary        p p p
atom_style      atomic

neighbor        2.0 bin
neigh_modify    every 10 delay 0 check no

read_data	    water.lmp
Reading data file ...
  triclinic box = (0.0000000 0.0000000 0.0000000) to (12.444700 12.444700 12.444700) with tilt (0.0000000 0.0000000 0.0000000)
  1 by 1 by 1 MPI processor grid
  reading atoms ...
  192 atoms
  read_data CPU = 0.005 seconds
mass 		    1 16
mass		    2 2

pair_style	    deepmd ../model/graph.pb
Summary of lammps deepmd module ...
  >>> Info of deepmd-kit:
  installed to:       /home/hp200266/u01036/gzq/deepmd-kit/dp
  source:             v1.2.2-737-g688818d-dirty
  source brach:       devel_
  source commit:      688818d
  source commit at:   2021-06-30 12:37:18 +0800
  surpport model ver.:1.0 
  build float prec:   double
  build with tf inc:  /home/hp200266/u01036/gzq/fj_software/tensorflow/TensorFlow-2.2.0/include;/home/hp200266/u01036/gzq/fj_software/tensorflow/TensorFlow-2.2.0/include
  build with tf lib:  /home/hp200266/u01036/gzq/fj_software/tensorflow/TensorFlow-2.2.0/lib/libtensorflow_cc.so;/home/hp200266/u01036/gzq/fj_software/tensorflow/TensorFlow-2.2.0/lib/libtensorflow_framework.so
  set tf intra_op_parallelism_threads: 0
  set tf inter_op_parallelism_threads: 0
  >>> Info of lammps module:
  use deepmd-kit at:  /home/hp200266/u01036/gzq/deepmd-kit/dp
  source:             v1.2.2-727-g0362e5b-dirty
  source branch:      devel_
  source commit:      0362e5b
  source commit at:   2021-06-23 22:31:30 +0800
  build float prec:   double
  build with tf inc:  /home/hp200266/u01036/gzq/fj_software/tensorflow/TensorFlow-2.2.0/include;/home/hp200266/u01036/gzq/fj_software/tensorflow/TensorFlow-2.2.0/include
  build with tf lib:  /home/hp200266/u01036/gzq/fj_software/tensorflow/TensorFlow-2.2.0/lib/libtensorflow_cc.so;/home/hp200266/u01036/gzq/fj_software/tensorflow/TensorFlow-2.2.0/lib/libtensorflow_framework.so
2021-06-30 13:44:50.012164: I tensorflow/core/common_runtime/process_util.cc:147] Creating new thread pool with default inter op setting: 2. Tune using inter_op_parallelism_threads for best performance.
  >>> Info of model(s):
  using   1 model(s): ../model/graph.pb 
  rcut in model:      6
  ntypes in model:    2
--------------------------------------------------------------------------------
Group 1: FLOPS_DP
+----------------------+---------+-------------+
|         Event        | Counter | HWThread 12 |
+----------------------+---------+-------------+
|     INST_RETIRED     |   PMC0  | 24416192812 |
|      CPU_CYCLES      |   PMC1  | 20625554130 |
| FP_DP_FIXED_OPS_SPEC |   PMC3  |  2480482084 |
| FP_DP_SCALE_OPS_SPEC |   PMC4  | 25252270686 |
+----------------------+---------+-------------+

+--------------------------+-------------+
|          Metric          | HWThread 12 |
+--------------------------+-------------+
|    Runtime (RDTSC) [s]   |     16.2653 |
|        Clock [MHz]       |   1268.0720 |
|            CPI           |      0.8447 |
|     DP (FP) [MFLOP/s]    |    152.5016 |
| DP (FP+SVE128) [MFLOP/s] |   1705.0271 |
| DP (FP+SVE256) [MFLOP/s] |   3257.5525 |
| DP (FP+SVE512) [MFLOP/s] |   6362.6035 |
+--------------------------+-------------+

