# bulk water

units           metal
boundary        p p p
atom_style      atomic

neighbor        2.0 bin
neigh_modify    every 10 delay 0 check no

read_data	    water.lmp
mass 		    1 16
mass		    2 2


pair_style	    deepmd ../model/graph-compress-preprocess.pb
pair_coeff	

replicate       128 128 120 bbox

#velocity        all create 330.0 23456789
velocity        all create 330.0 23456789 loop local

fix             1 all nvt temp 330.0 330.0 0.5
timestep        0.0005
thermo_style    custom step pe ke etotal temp press vol
thermo          50
# dump		    1 all custom 100 water.dump id type x y z 

run             499
